projected/problems_b25_r0_d7_m100_s666/_DIMACS/b25_d7_r0_s666_004.cnf
p cnf 205 301 25
c p show 1 2 3 4 5 6 7 8 9 10 11 12 13 14 15 16 17 18 19 20 21 22 23 24 25
-122 9 -5 0
-123 -11 0
-123 -19 0
-124 123 122 0
-125 6 20 0
-126 -8 0
-126 8 0
-127 126 125 0
-128 127 124 0
-129 -3 -7 0
-130 -12 0
-130 -14 0
-131 130 0
-131 129 0
-132 -12 0
-132 -21 0
-133 20 0
-133 15 0
-134 133 132 0
-135 134 0
-135 131 0
-136 12 21 0
-137 -20 -15 0
-138 137 0
-138 136 0
-139 3 0
-139 7 0
-140 12 14 0
-141 140 139 0
-142 141 0
-142 138 0
-143 142 135 0
-144 143 0
-144 128 0
-145 -6 0
-145 2 0
-146 -2 0
-146 14 0
-147 146 145 0
-148 -14 0
-148 12 0
-149 -20 0
-149 -13 0
-150 149 0
-150 148 0
-151 150 147 0
-152 -14 12 0
-153 21 5 0
-154 -5 -21 0
-155 154 0
-155 153 0
-156 155 0
-156 152 0
-157 -24 0
-157 17 0
-158 -23 0
-158 -18 0
-159 158 0
-159 157 0
-160 159 0
-160 156 0
-161 160 151 0
-162 161 144 0
-163 -6 0
-163 8 0
-164 16 0
-164 -17 0
-165 17 0
-165 -16 0
-166 165 164 0
-167 166 0
-167 163 0
-168 5 -9 0
-169 15 -12 0
-170 169 0
-170 168 0
-171 170 167 0
-172 23 16 0
-173 17 -7 0
-174 7 -17 0
-175 174 0
-175 173 0
-176 175 0
-176 172 0
-177 -17 0
-177 7 0
-178 -7 0
-178 17 0
-179 178 177 0
-180 -23 0
-180 -16 0
-181 180 0
-181 179 0
-182 181 176 0
-183 10 0
-183 -5 0
-184 -11 0
-184 3 0
-185 184 183 0
-186 185 0
-186 182 0
-187 186 171 0
-188 -10 0
-188 14 0
-189 22 11 0
-190 189 0
-190 188 0
-191 -14 25 0
-192 25 9 0
-193 192 191 0
-194 193 0
-194 190 0
-195 25 -19 0
-196 19 -25 0
-197 196 0
-197 195 0
-198 -18 0
-198 -8 0
-199 198 0
-199 197 0
-200 -20 13 0
-201 13 0
-202 201 0
-202 200 0
-203 202 199 0
-204 203 194 0
-205 204 187 0
-26 205 0
-26 162 0
-27 21 0
-27 -19 0
-28 16 13 0
-94 28 27 0
-100 20 -24 0
-106 -21 0
-106 -4 0
-112 106 0
-112 100 0
-118 112 0
-118 94 0
-121 -5 5 0
-29 -1 0
-29 -23 0
-30 29 0
-30 121 0
-31 1 23 0
-32 5 0
-32 -5 0
-33 32 0
-33 31 0
-34 33 30 0
-35 -6 0
-35 -21 0
-36 -17 0
-36 -4 0
-37 36 35 0
-38 37 0
-38 34 0
-39 38 0
-39 118 0
-40 9 0
-40 -1 0
-41 -15 -8 0
-42 8 15 0
-43 42 0
-43 41 0
-44 43 40 0
-45 -14 -16 0
-46 -19 11 0
-47 46 0
-47 45 0
-48 47 0
-48 44 0
-49 14 -19 0
-50 -24 0
-50 21 0
-51 -21 0
-51 24 0
-52 51 50 0
-53 52 0
-53 49 0
-54 24 -21 0
-55 21 -24 0
-56 55 0
-56 54 0
-57 -14 0
-57 19 0
-58 57 0
-58 56 0
-59 58 53 0
-60 20 0
-60 -18 0
-61 -2 -14 0
-62 61 60 0
-63 62 0
-63 59 0
-64 63 48 0
-65 64 0
-65 39 0
-66 1 0
-66 -11 0
-67 -12 0
-67 -6 0
-68 67 66 0
-69 2 19 0
-70 14 16 0
-71 70 69 0
-72 71 68 0
-73 -2 0
-73 -19 0
-74 -14 0
-74 -16 0
-75 74 0
-75 73 0
-76 -1 11 0
-77 12 6 0
-78 77 0
-78 76 0
-79 78 75 0
-80 79 0
-80 72 0
-81 -19 16 0
-82 8 25 0
-83 82 0
-83 81 0
-84 4 0
-84 -25 0
-85 25 0
-85 -4 0
-86 85 84 0
-87 -19 0
-87 -1 0
-88 87 86 0
-89 19 1 0
-90 -4 25 0
-91 -25 4 0
-92 91 0
-92 90 0
-93 92 89 0
-95 93 0
-95 88 0
-96 95 83 0
-97 96 80 0
-98 -9 -3 0
-99 -11 0
-99 13 0
-101 99 98 0
-102 14 0
-102 25 0
-103 -25 0
-103 -14 0
-104 103 102 0
-105 -20 23 0
-107 105 104 0
-108 107 0
-108 101 0
-109 16 19 0
-110 3 1 0
-111 110 109 0
-113 -11 19 0
-114 23 -1 0
-115 114 0
-115 113 0
-116 115 111 0
-117 116 108 0
-119 117 97 0
-120 119 0
-120 65 0
120 26 0
-136 -132 0
-137 -133 0
-138 -134 0
-134 -138 0
-129 -139 0
-139 -129 0
-130 -140 0
-140 -130 0
-141 -131 0
-175 -179 0
-172 -180 0
-180 -172 0
-31 -29 0
-29 -31 0
-32 -121 0
-56 -52 0
-52 -56 0
-57 -49 0
-73 -69 0
-69 -73 0
-74 -70 0
-70 -74 0
-71 -75 0
-75 -71 0
-66 -76 0
-76 -66 0
-77 -67 0
-78 -68 0
-68 -78 0
-89 -87 0
-92 -86 0
-86 -92 0
