projected/problems_b25_r0_d7_m100_s666/b25_d7_r0_s666_004.smt2
(set-logic QF_UF)
(declare-fun A0 () Bool)
(declare-fun A1 () Bool)
(declare-fun A2 () Bool)
(declare-fun A3 () Bool)
(declare-fun A4 () Bool)
(declare-fun A5 () Bool)
(declare-fun A6 () Bool)
(declare-fun A7 () Bool)
(declare-fun A8 () Bool)
(declare-fun A9 () Bool)
(declare-fun A10 () Bool)
(declare-fun A11 () Bool)
(declare-fun A12 () Bool)
(declare-fun A13 () Bool)
(declare-fun A14 () Bool)
(declare-fun A15 () Bool)
(declare-fun A16 () Bool)
(declare-fun A17 () Bool)
(declare-fun A18 () Bool)
(declare-fun A19 () Bool)
(declare-fun A20 () Bool)
(declare-fun A21 () Bool)
(declare-fun A22 () Bool)
(declare-fun A23 () Bool)
(declare-fun A24 () Bool)
(assert (let ((.def_0 (not A4))) (let ((.def_1 (or A8 .def_0))) (let ((.def_2 (not .def_1))) (let ((.def_3 (not A18))) (let ((.def_4 (not A10))) (let ((.def_5 (and .def_4 .def_3))) (let ((.def_6 (not .def_5))) (let ((.def_7 (and .def_6 .def_2))) (let ((.def_8 (not A19))) (let ((.def_9 (not A5))) (let ((.def_10 (and .def_9 .def_8))) (let ((.def_11 (not .def_10))) (let ((.def_12 (not A7))) (let ((.def_13 (and .def_12 A7))) (let ((.def_14 (or .def_13 .def_11))) (let ((.def_15 (not .def_14))) (let ((.def_16 (and .def_15 .def_7))) (let ((.def_17 (or A11 A20))) (let ((.def_18 (not A14))) (let ((.def_19 (or .def_8 .def_18))) (let ((.def_20 (and .def_19 .def_17))) (let ((.def_21 (not .def_20))) (let ((.def_22 (not A6))) (let ((.def_23 (not A2))) (let ((.def_24 (or .def_23 .def_22))) (let ((.def_25 (not .def_24))) (let ((.def_26 (not A13))) (let ((.def_27 (not A11))) (let ((.def_28 (and .def_27 .def_26))) (let ((.def_29 (not .def_28))) (let ((.def_30 (or .def_29 .def_25))) (let ((.def_31 (= .def_30 .def_21))) (let ((.def_32 (or .def_31 .def_16))) (let ((.def_33 (not .def_32))) (let ((.def_34 (not A1))) (let ((.def_35 (or A5 .def_34))) (let ((.def_36 (and .def_34 A13))) (let ((.def_37 (not .def_36))) (let ((.def_38 (and .def_37 .def_35))) (let ((.def_39 (and .def_26 A11))) (let ((.def_40 (not .def_39))) (let ((.def_41 (or A19 A12))) (let ((.def_42 (or .def_41 .def_40))) (let ((.def_43 (and .def_42 .def_38))) (let ((.def_44 (and A13 .def_27))) (let ((.def_45 (not .def_44))) (let ((.def_46 (not A20))) (let ((.def_47 (= A4 .def_46))) (let ((.def_48 (and .def_47 .def_45))) (let ((.def_49 (not A23))) (let ((.def_50 (and .def_49 A16))) (let ((.def_51 (not .def_50))) (let ((.def_52 (or A22 A17))) (let ((.def_53 (or .def_52 .def_51))) (let ((.def_54 (not .def_53))) (let ((.def_55 (and .def_54 .def_48))) (let ((.def_56 (not .def_55))) (let ((.def_57 (and .def_56 .def_43))) (let ((.def_58 (not .def_57))) (let ((.def_59 (or .def_58 .def_33))) (let ((.def_60 (not .def_59))) (let ((.def_61 (and .def_9 A7))) (let ((.def_62 (= A16 A15))) (let ((.def_63 (not .def_62))) (let ((.def_64 (and .def_63 .def_61))) (let ((.def_65 (not A8))) (let ((.def_66 (or A4 .def_65))) (let ((.def_67 (not .def_66))) (let ((.def_68 (and .def_18 A11))) (let ((.def_69 (or .def_68 .def_67))) (let ((.def_70 (not .def_69))) (let ((.def_71 (or .def_70 .def_64))) (let ((.def_72 (not .def_71))) (let ((.def_73 (not A16))) (let ((.def_74 (= .def_22 .def_73))) (let ((.def_75 (or A22 A15))) (let ((.def_76 (not .def_75))) (let ((.def_77 (= .def_76 .def_74))) (let ((.def_78 (not .def_77))) (let ((.def_79 (not A9))) (let ((.def_80 (or .def_79 A4))) (let ((.def_81 (not .def_80))) (let ((.def_82 (or A10 .def_23))) (let ((.def_83 (not .def_82))) (let ((.def_84 (or .def_83 .def_81))) (let ((.def_85 (and .def_84 .def_78))) (let ((.def_86 (not .def_85))) (let ((.def_87 (and .def_86 .def_72))) (let ((.def_88 (and .def_79 A13))) (let ((.def_89 (not A21))) (let ((.def_90 (and .def_89 .def_4))) (let ((.def_91 (not .def_90))) (let ((.def_92 (and .def_91 .def_88))) (let ((.def_93 (not .def_92))) (let ((.def_94 (not A24))) (let ((.def_95 (and A13 .def_94))) (let ((.def_96 (not .def_95))) (let ((.def_97 (and .def_94 .def_65))) (let ((.def_98 (not .def_97))) (let ((.def_99 (or .def_98 .def_96))) (let ((.def_100 (not .def_99))) (let ((.def_101 (or .def_100 .def_93))) (let ((.def_102 (not .def_101))) (let ((.def_103 (= .def_3 .def_94))) (let ((.def_104 (not .def_103))) (let ((.def_105 (or A17 A7))) (let ((.def_106 (or .def_105 .def_104))) (let ((.def_107 (or .def_8 A12))) (let ((.def_108 (not .def_107))) (let ((.def_109 (not A12))) (let ((.def_110 (or .def_109 .def_109))) (let ((.def_111 (or .def_110 .def_108))) (let ((.def_112 (and .def_111 .def_106))) (let ((.def_113 (not .def_112))) (let ((.def_114 (or .def_113 .def_102))) (let ((.def_115 (not .def_114))) (let ((.def_116 (and .def_115 .def_87))) (let ((.def_117 (or .def_116 .def_60))) (let ((.def_118 (not .def_117))) (let ((.def_119 (or .def_46 A18))) (let ((.def_120 (not .def_119))) (let ((.def_121 (or A15 A12))) (let ((.def_122 (or .def_121 .def_120))) (let ((.def_123 (and .def_8 A23))) (let ((.def_124 (not .def_123))) (let ((.def_125 (not A3))) (let ((.def_126 (and .def_46 .def_125))) (let ((.def_127 (and .def_126 .def_124))) (let ((.def_128 (and .def_127 .def_122))) (let ((.def_129 (or A0 A22))) (let ((.def_130 (not .def_129))) (let ((.def_131 (and A4 .def_0))) (let ((.def_132 (= .def_131 .def_130))) (let ((.def_133 (or A5 A20))) (let ((.def_134 (not .def_133))) (let ((.def_135 (and .def_73 .def_125))) (let ((.def_136 (or .def_135 .def_134))) (let ((.def_137 (not .def_136))) (let ((.def_138 (or .def_137 .def_132))) (let ((.def_139 (not .def_138))) (let ((.def_140 (and .def_139 .def_128))) (let ((.def_141 (not .def_140))) (let ((.def_142 (or .def_65 A0))) (let ((.def_143 (= .def_12 A14))) (let ((.def_144 (not .def_143))) (let ((.def_145 (and .def_144 .def_142))) (let ((.def_146 (and A13 A15))) (let ((.def_147 (and A18 .def_4))) (let ((.def_148 (or .def_147 .def_146))) (let ((.def_149 (or .def_148 .def_145))) (let ((.def_150 (not .def_149))) (let ((.def_151 (= .def_46 .def_49))) (let ((.def_152 (not .def_151))) (let ((.def_153 (and .def_26 A18))) (let ((.def_154 (= .def_153 .def_152))) (let ((.def_155 (not .def_154))) (let ((.def_156 (not A17))) (let ((.def_157 (and A19 .def_156))) (let ((.def_158 (or .def_34 .def_26))) (let ((.def_159 (or .def_158 .def_157))) (let ((.def_160 (and .def_159 .def_155))) (let ((.def_161 (or .def_160 .def_150))) (let ((.def_162 (not .def_161))) (let ((.def_163 (or .def_162 .def_141))) (let ((.def_164 (and .def_34 .def_3))) (let ((.def_165 (not .def_164))) (let ((.def_166 (not A15))) (let ((.def_167 (and .def_26 .def_166))) (let ((.def_168 (not .def_167))) (let ((.def_169 (or .def_168 .def_165))) (let ((.def_170 (not .def_169))) (let ((.def_171 (and A0 .def_4))) (let ((.def_172 (not .def_171))) (let ((.def_173 (or A11 A5))) (let ((.def_174 (and .def_173 .def_172))) (let ((.def_175 (not .def_174))) (let ((.def_176 (= .def_175 .def_170))) (let ((.def_177 (not .def_176))) (let ((.def_178 (or .def_3 A15))) (let ((.def_179 (or A7 A24))) (let ((.def_180 (and .def_179 .def_178))) (let ((.def_181 (not .def_180))) (let ((.def_182 (or A18 A0))) (let ((.def_183 (= A24 A3))) (let ((.def_184 (not .def_183))) (let ((.def_185 (= .def_184 .def_182))) (let ((.def_186 (not .def_185))) (let ((.def_187 (and .def_186 .def_181))) (let ((.def_188 (and .def_187 .def_177))) (let ((.def_189 (or .def_65 .def_23))) (let ((.def_190 (and .def_4 A12))) (let ((.def_191 (or .def_190 .def_189))) (let ((.def_192 (= .def_94 A13))) (let ((.def_193 (not .def_192))) (let ((.def_194 (not A22))) (let ((.def_195 (and A19 .def_194))) (let ((.def_196 (not .def_195))) (let ((.def_197 (or .def_196 .def_193))) (let ((.def_198 (and .def_197 .def_191))) (let ((.def_199 (not .def_198))) (let ((.def_200 (and .def_166 .def_3))) (let ((.def_201 (not .def_200))) (let ((.def_202 (or A2 A0))) (let ((.def_203 (or .def_202 .def_201))) (let ((.def_204 (or .def_4 A18))) (let ((.def_205 (not .def_204))) (let ((.def_206 (not A0))) (let ((.def_207 (or A22 .def_206))) (let ((.def_208 (not .def_207))) (let ((.def_209 (or .def_208 .def_205))) (let ((.def_210 (not .def_209))) (let ((.def_211 (or .def_210 .def_203))) (let ((.def_212 (not .def_211))) (let ((.def_213 (and .def_212 .def_199))) (let ((.def_214 (and .def_213 .def_188))) (let ((.def_215 (or .def_214 .def_163))) (let ((.def_216 (not .def_215))) (let ((.def_217 (or .def_216 .def_118))) .def_217)))))))))))))))))))))))))))))))))))))))))))))))))))))))))))))))))))))))))))))))))))))))))))))))))))))))))))))))))))))))))))))))))))))))))))))))))))))))))))))))))))))))))))))))))))))))))))))))))))))))))))))))))))))))))))
(check-sat)
